NAME : A048-10f.3325.tour
COMMENT : Cost = 0_3325
COMMENT : Found by LKH [Keld Helsgaun] Mon Jul  4 17:03:43 2016
TYPE : TOUR
DIMENSION : 57
TOUR_SECTION
1
12
9
7
11
57
6
31
32
33
52
41
43
44
42
23
53
22
15
36
35
24
8
13
56
26
2
27
55
37
47
14
18
19
50
40
46
17
16
45
49
39
38
21
20
51
3
28
34
10
54
4
30
5
25
29
48
-1
EOF
